[2026-03-24T00:34:31.377Z] Pipeline "set_set_set_s009_g002" → 2026_03_24_00_34_31_set_set_set_s009_g002_max.sol
Set parameter WLSAccessID
Set parameter WLSSecret
Set parameter LicenseID to value 2792458
Set parameter LogFile to value "gurobi.log"
Using license file /root/gurobi.lic
Academic license 2792458 - for non-commercial use only - registered to an___@studenti.unipg.it

Gurobi Optimizer version 13.0.1 build v13.0.1rc0 (linux64 - "Ubuntu 24.04.4 LTS")
Copyright (c) 2026, Gurobi Optimization, LLC

Warning: Duplicate section found (read 'binary') - Is a variable name equal to an LP file format keyword?
Warning: Duplicate section found (read 'binary') - Is a variable name equal to an LP file format keyword?
Warning: Duplicate section found (read 'binary') - Is a variable name equal to an LP file format keyword?
Warning: Duplicate section found (read 'binary') - Is a variable name equal to an LP file format keyword?
Warning: Duplicate section found (read 'binary') - Is a variable name equal to an LP file format keyword?
Warning: Duplicate section found (read 'binary') - Is a variable name equal to an LP file format keyword?
Warning: Duplicate section found (read 'binary') - Is a variable name equal to an LP file format keyword?
Warning: Duplicate section found (read 'binary') - Is a variable name equal to an LP file format keyword?
Warning: Duplicate section found (read 'binary') - Is a variable name equal to an LP file format keyword?
Warning: Duplicate section found (read 'binary') - Is a variable name equal to an LP file format keyword?
Warning: Further warnings of this type will be omitted.
Read LP format model from file /root/bgw/data/uploads/2026_03_24_00_34_31_set_set_set_s009_g002_max.lp
Reading time = 0.00 seconds
: 921 rows, 146 columns, 2755 nonzeros

Using Gurobi shared library /opt/gurobi1301/linux64/lib/libgurobi.so.13.0.1

CPU model: AMD EPYC-Genoa Processor, instruction set [SSE2|AVX|AVX2|AVX512]
Thread count: 16 physical cores, 16 logical processors, using up to 16 threads

Academic license 2792458 - for non-commercial use only - registered to an___@studenti.unipg.it
Optimize a model with 921 rows, 146 columns and 2755 nonzeros (Max)
Model fingerprint: 0x3b563e1d
Model has 7 linear objective coefficients
Variable types: 21 continuous, 125 integer (125 binary)
Coefficient statistics:
  Matrix range     [1e+00, 2e+01]
  Objective range  [1e+00, 1e+00]
  Bounds range     [1e+00, 1e+00]
  RHS range        [1e+00, 2e+01]

Found heuristic solution: objective 7.0000000
Presolve removed 164 rows and 37 columns
Presolve time: 0.00s
Presolved: 757 rows, 109 columns, 2348 nonzeros
Variable types: 0 continuous, 109 integer (102 binary)
Found heuristic solution: objective 8.0000000

Root relaxation: objective 3.100000e+01, 85 iterations, 0.00 seconds (0.00 work units)

    Nodes    |    Current Node    |     Objective Bounds      |     Work
 Expl Unexpl |  Obj  Depth IntInf | Incumbent    BestBd   Gap | It/Node Time

     0     0   31.00000    0   21    8.00000   31.00000   288%     -    0s
H    0     0                      14.0000000   31.00000   121%     -    0s
H    0     0                      15.0000000   31.00000   107%     -    0s
H    0     0                      17.0000000   31.00000  82.4%     -    0s
H    0     0                      19.0000000   31.00000  63.2%     -    0s
H    0     0                      20.0000000   31.00000  55.0%     -    0s
     0     0   31.00000    0   24   20.00000   31.00000  55.0%     -    0s
     0     0   31.00000    0   24   20.00000   31.00000  55.0%     -    0s
     0     0   31.00000    0   21   20.00000   31.00000  55.0%     -    0s
     0     0   31.00000    0   24   20.00000   31.00000  55.0%     -    0s
     0     0   31.00000    0   21   20.00000   31.00000  55.0%     -    0s
     0     0   31.00000    0   25   20.00000   31.00000  55.0%     -    0s
     0     0   31.00000    0   25   20.00000   31.00000  55.0%     -    0s
     0     0   31.00000    0   25   20.00000   31.00000  55.0%     -    0s
     0     0   31.00000    0   22   20.00000   31.00000  55.0%     -    0s
     0     0   31.00000    0   22   20.00000   31.00000  55.0%     -    0s
     0     0   31.00000    0   21   20.00000   31.00000  55.0%     -    0s
     0     0   31.00000    0   21   20.00000   31.00000  55.0%     -    0s
     0     0   31.00000    0   21   20.00000   31.00000  55.0%     -    0s
     0     2   31.00000    0   21   20.00000   31.00000  55.0%     -    0s

Cutting planes:
  Cover: 8
  Inf proof: 10
  Zero half: 1

Explored 1680 nodes (47461 simplex iterations) in 0.29 seconds (0.26 work units)
Thread count was 16 (of 16 available processors)

Solution count 7: 20 19 17 ... 7

Optimal solution found (tolerance 1.00e-04)
Best objective 2.000000000000e+01, best bound 2.000000000000e+01, gap 0.0000%

Wrote result file '/root/bgw/data/results/2026_03_24_00_34_31_set_set_set_s009_g002_max.sol'

